1
17
19
31
29
30
5
6
7
8
2
16
20
32
27
28
38
51
53
65
63
64
39
40
41
42
37
50
54
66
61
62
72
84
86
99
97
98
73
74
75
76
71
83
87
100
95
96
106
118
120
136
131
132
107
108
109
110
105
117
121
135
129
130
119
85
52
18
15
9
10
3
14
21
33
25
26
43
44
36
48
55
67
59
60
49
77
78
70
82
89
101
93
94
88
111
112
104
116
123
134
127
128
122
113
114
103
115
124
133
125
126
92
91
102
90
81
69
80
79
58
57
68
56
47
35
46
45
24
23
34
22
13
4
12
11
1
